(set-info :smt-lib-version 2.6)
(set-logic QF_NIA)
(set-info :source |AProve team, see http://aprove.informatik.rwth-aachen.de/, submitted for SMT-COMP 2014|)
(set-info :category "industrial")
(set-info :status sat)
(declare-fun b__115 () Int)
(declare-fun a__27 () Int)
(declare-fun a__2 () Int)
(declare-fun a__7 () Int)
(declare-fun a__13 () Int)
(declare-fun a__33 () Int)
(declare-fun a__36 () Int)
(declare-fun a__17 () Int)
(declare-fun a__47 () Int)
(declare-fun a__56 () Int)
(declare-fun a__63 () Int)
(declare-fun a__69 () Int)
(declare-fun a__51 () Int)
(declare-fun a__60 () Int)
(declare-fun b__116 () Int)
(declare-fun a__3 () Int)
(declare-fun a__8 () Int)
(declare-fun a__4 () Int)
(declare-fun a__11 () Int)
(declare-fun a__9 () Int)
(declare-fun a__14 () Int)
(declare-fun a__15 () Int)
(declare-fun a__20 () Int)
(declare-fun a__18 () Int)
(declare-fun a__22 () Int)
(declare-fun a__24 () Int)
(declare-fun a__28 () Int)
(declare-fun a__25 () Int)
(declare-fun a__29 () Int)
(declare-fun a__31 () Int)
(declare-fun a__34 () Int)
(declare-fun a__37 () Int)
(declare-fun a__10 () Int)
(declare-fun a__38 () Int)
(declare-fun a__5 () Int)
(declare-fun a__23 () Int)
(declare-fun a__39 () Int)
(declare-fun a__40 () Int)
(declare-fun a__41 () Int)
(declare-fun a__30 () Int)
(declare-fun a__42 () Int)
(declare-fun a__43 () Int)
(declare-fun a__44 () Int)
(declare-fun a__45 () Int)
(declare-fun a__19 () Int)
(declare-fun a__46 () Int)
(declare-fun a__48 () Int)
(declare-fun a__49 () Int)
(declare-fun a__50 () Int)
(declare-fun a__52 () Int)
(declare-fun a__53 () Int)
(declare-fun a__54 () Int)
(declare-fun a__55 () Int)
(declare-fun a__57 () Int)
(declare-fun a__58 () Int)
(declare-fun a__59 () Int)
(declare-fun a__61 () Int)
(declare-fun a__62 () Int)
(declare-fun a__64 () Int)
(declare-fun a__65 () Int)
(declare-fun a__66 () Int)
(declare-fun a__67 () Int)
(declare-fun a__68 () Int)
(declare-fun a__70 () Int)
(declare-fun a__71 () Int)
(declare-fun a__72 () Int)
(declare-fun a__73 () Int)
(declare-fun a__74 () Int)
(declare-fun a__75 () Int)
(declare-fun a__76 () Int)
(declare-fun a__77 () Int)
(declare-fun a__78 () Int)
(declare-fun a__79 () Int)
(declare-fun a__80 () Int)
(declare-fun a__81 () Int)
(declare-fun a__82 () Int)
(declare-fun a__83 () Int)
(declare-fun a__84 () Int)
(declare-fun a__85 () Int)
(declare-fun a__86 () Int)
(declare-fun a__87 () Int)
(declare-fun a__88 () Int)
(declare-fun a__89 () Int)
(declare-fun a__90 () Int)
(declare-fun a__91 () Int)
(declare-fun a__92 () Int)
(declare-fun a__93 () Int)
(declare-fun a__94 () Int)
(declare-fun a__95 () Int)
(declare-fun a__96 () Int)
(declare-fun a__97 () Int)
(declare-fun a__98 () Int)
(declare-fun a__99 () Int)
(declare-fun a__100 () Int)
(declare-fun a__101 () Int)
(declare-fun a__102 () Int)
(declare-fun a__103 () Int)
(declare-fun a__104 () Int)
(declare-fun a__105 () Int)
(declare-fun a__106 () Int)
(declare-fun a__107 () Int)
(declare-fun a__108 () Int)
(declare-fun a__109 () Int)
(declare-fun a__110 () Int)
(declare-fun a__111 () Int)
(declare-fun a__112 () Int)
(declare-fun a__113 () Int)
(declare-fun a__114 () Int)
(declare-fun a__1 () Int)
(declare-fun a__6 () Int)
(declare-fun a__12 () Int)
(declare-fun a__16 () Int)
(declare-fun a__21 () Int)
(declare-fun a__26 () Int)
(declare-fun a__32 () Int)
(declare-fun a__35 () Int)
(assert (and (>= (+ 1 (* (- 0 1) b__115)) 0) (= (+ (* b__115 a__27) (* (- 0 1) a__27)) 0) (= (+ (* b__115 a__2) (* (- 0 1) a__2)) 0) (= (+ (* b__115 a__7) (* (- 0 1) a__7)) 0) (= (+ (* b__115 a__13) (* (- 0 1) a__13)) 0) (= (+ (* b__115 a__33) (* (- 0 1) a__33)) 0) (= (+ (* b__115 a__36) (* (- 0 1) a__36)) 0) (= (+ (* b__115 a__17 a__47) (* (- 0 1) (* a__17 a__47))) 0) (= (+ (* b__115 a__17 a__56) (* (- 0 1) (* a__17 a__56))) 0) (= (+ (* b__115 a__17 a__63) (* (- 0 1) (* a__17 a__63))) 0) (= (+ (* b__115 a__17 a__69) (* (- 0 1) (* a__17 a__69))) 0) (= (+ (* b__115 a__17 a__51) (* (- 0 1) (* a__17 a__51))) 0) (= (+ (* b__115 a__17 a__60) (* (- 0 1) (* a__17 a__60))) 0) (>= (+ 1 (* (- 0 1) b__116)) 0) (= (+ (* b__116 a__17) (* (- 0 1) a__17)) 0) (>= (+ a__3 (* (- 0 1) a__8)) 0) (>= (+ a__4 (* (- 0 1) (* a__11 a__7)) (* (- 0 1) a__9)) 0) (>= (+ a__8 (* (- 0 1) a__14)) 0) (>= (+ a__9 (* (- 0 1) (* a__11 a__13)) (* (- 0 1) a__15)) 0) (>= (+ a__14 (* (- 0 1) (* a__20 a__17))) 0) (>= (+ a__15 (* (- 0 1) a__18)) 0) (>= (+ a__18 (* (- 0 1) a__22)) 0) (>= (+ (* a__24 a__22) (* (- 0 1) (* a__11 a__27)) (* (- 0 1) a__28)) 0) (>= (+ (* a__25 a__22) (* (- 0 1) a__29)) 0) (>= (+ a__28 (* (- 0 1) (* a__11 a__2)) (* (- 0 1) a__3)) 0) (>= (+ a__29 (* (- 0 1) a__4)) 0) (>= (+ (* a__31 a__22) (* (- 0 1) (* a__11 a__33)) (* (- 0 1) a__34)) 0) (>= (+ a__34 (* (- 0 1) (* a__11 a__36)) (* (- 0 1) a__37)) 0) (>= (+ a__37 (* (- 0 1) a__22)) 0) (>= (+ a__14 (* (- 0 1) a__22)) 0) (>= (+ (* b__115 a__10) (* b__115 a__38 a__11) (* (- 0 1) (* b__115 a__5))) 0) (>= (+ (* b__115 a__10) (* b__115 a__23 a__11) (* (- 0 1) (* b__115 a__39)) (* (- 0 1) (* b__115 a__10 a__40))) 0) (>= (+ (* b__115 a__24 a__11) (* (- 0 1) (* b__115 a__11 a__40))) 0) (>= (+ (* b__115 a__25 a__11) (* (- 0 1) (* b__115 a__41))) 0) (>= (+ (* b__115 a__10) (* b__115 a__30 a__11) (* (- 0 1) (* b__115 a__42)) (* (- 0 1) (* b__115 a__10 a__43))) 0) (>= (+ (* b__115 a__31 a__11) (* (- 0 1) (* b__115 a__11 a__43))) 0) (>= (+ (* b__115 a__10) (* (- 0 1) (* b__115 a__44))) 0) (>= (+ (* b__115 a__11) (* (- 0 1) (* b__115 a__45))) 0) (>= (+ (* b__116 a__19) (* b__116 a__38 a__20) (* (- 0 1) (* b__116 a__5))) 0) (>= (+ (* b__116 a__19) (* b__116 a__23 a__20) (* (- 0 1) (* b__116 a__46)) (* (- 0 1) (* b__116 a__10 a__47))) 0) (>= (+ (* b__116 a__24 a__20) (* (- 0 1) (* b__116 a__11 a__47)) (* (- 0 1) (* b__116 a__48))) 0) (>= (+ (* b__116 a__25 a__20) (* (- 0 1) (* b__116 a__49))) 0) (>= (+ (* b__116 a__19) (* b__116 a__30 a__20) (* (- 0 1) (* b__116 a__50)) (* (- 0 1) (* b__116 a__10 a__51))) 0) (>= (+ (* b__116 a__31 a__20) (* (- 0 1) (* b__116 a__11 a__51)) (* (- 0 1) (* b__116 a__52))) 0) (>= (+ (* b__116 a__19) (* (- 0 1) (* b__116 a__53))) 0) (>= (+ (* b__116 a__20) (* (- 0 1) (* b__116 a__54))) 0) (>= (+ (* b__116 a__46) (* b__116 a__5 a__47) (* (- 0 1) (* b__116 a__55)) (* (- 0 1) (* b__116 a__10 a__56))) 0) (>= (+ (* b__116 a__48) (* (- 0 1) (* b__116 a__11 a__56)) (* (- 0 1) (* b__116 a__57))) 0) (>= (+ (* b__116 a__49) (* (- 0 1) (* b__116 a__58))) 0) (>= (+ (* b__116 a__50) (* b__116 a__5 a__51) (* (- 0 1) (* b__116 a__59)) (* (- 0 1) (* b__116 a__10 a__60))) 0) (>= (+ (* b__116 a__52) (* (- 0 1) (* b__116 a__11 a__60)) (* (- 0 1) (* b__116 a__61))) 0) (>= (+ (* b__116 a__55) (* b__116 a__5 a__56) (* (- 0 1) (* b__116 a__62)) (* (- 0 1) (* b__116 a__10 a__63))) 0) (>= (+ (* b__116 a__57) (* (- 0 1) (* b__116 a__64))) 0) (>= (+ (* b__116 a__58) (* (- 0 1) (* b__116 a__11 a__63)) (* (- 0 1) (* b__116 a__65))) 0) (>= (+ (* b__116 a__59) (* b__116 a__5 a__60) (* (- 0 1) (* b__116 a__66)) (* (- 0 1) (* b__116 a__19 a__67))) 0) (>= (+ (* b__116 a__61) (* (- 0 1) (* b__116 a__20 a__67))) 0) (>= (+ (* b__116 a__62) (* b__116 a__5 a__63) (* (- 0 1) (* b__116 a__68)) (* (- 0 1) (* b__116 a__10 a__69))) 0) (>= (+ (* b__116 a__64) (* (- 0 1) (* b__116 a__70))) 0) (>= (+ (* b__116 a__65) (* (- 0 1) (* b__116 a__11 a__69)) (* (- 0 1) (* b__116 a__71))) 0) (>= (+ (* b__116 a__68) (* b__116 a__5 a__69) (* (- 0 1) (* b__116 a__72)) (* (- 0 1) (* b__116 a__19 a__73))) 0) (>= (+ (* b__116 a__70) (* (- 0 1) (* b__116 a__20 a__73))) 0) (>= (+ (* b__116 a__71) (* (- 0 1) (* b__116 a__74))) 0) (>= (+ (* b__116 a__72) (* b__116 a__5 a__73) (* (- 0 1) (* b__116 a__75)) (* (- 0 1) (* b__116 a__19 a__76))) 0) (>= (+ (* b__116 a__74) (* (- 0 1) (* b__116 a__20 a__76))) 0) (>= (+ (* b__116 a__62) (* (- 0 1) (* b__116 a__77))) 0) (>= (+ (* b__116 a__63) (* (- 0 1) (* b__116 a__78))) 0) (>= (+ (* b__116 a__64) (* (- 0 1) (* b__116 a__79))) 0) (>= (+ (* b__116 a__65) (* (- 0 1) (* b__116 a__80))) 0) (>= (+ (* b__116 a__68) (* (- 0 1) (* b__116 a__81))) 0) (>= (+ (* b__116 a__69) (* (- 0 1) (* b__116 a__82))) 0) (>= (+ (* b__116 a__70) (* (- 0 1) (* b__116 a__83))) 0) (>= (+ (* b__116 a__71) (* (- 0 1) (* b__116 a__84))) 0) (>= (+ (* b__116 a__72) (* (- 0 1) (* b__116 a__85))) 0) (>= (+ (* b__116 a__73) (* (- 0 1) (* b__116 a__86))) 0) (>= (+ (* b__116 a__74) (* (- 0 1) (* b__116 a__87))) 0) (>= (+ (* b__116 a__46) (* (- 0 1) (* b__116 a__88))) 0) (>= (+ (* b__116 a__47) (* (- 0 1) (* b__116 a__89))) 0) (>= (+ (* b__116 a__48) (* (- 0 1) (* b__116 a__90))) 0) (>= (+ (* b__116 a__49) (* (- 0 1) (* b__116 a__91))) 0) (>= (+ (* b__116 a__55) (* (- 0 1) (* b__116 a__92))) 0) (>= (+ (* b__116 a__56) (* (- 0 1) (* b__116 a__93))) 0) (>= (+ (* b__116 a__57) (* (- 0 1) (* b__116 a__94))) 0) (>= (+ (* b__116 a__58) (* (- 0 1) (* b__116 a__95))) 0) (>= (+ (* b__116 a__50) (* (- 0 1) (* b__116 a__96))) 0) (>= (+ (* b__116 a__51) (* (- 0 1) (* b__116 a__97))) 0) (>= (+ (* b__116 a__52) (* (- 0 1) (* b__116 a__98))) 0) (>= (+ (* b__116 a__59) (* (- 0 1) (* b__116 a__99))) 0) (>= (+ (* b__116 a__60) (* (- 0 1) (* b__116 a__100))) 0) (>= (+ (* b__116 a__61) (* (- 0 1) (* b__116 a__101))) 0) (>= (+ (* b__116 a__66) (* b__116 a__5 a__67) (* (- 0 1) (* b__116 a__5))) 0) (>= (+ (* b__116 a__66) (* (- 0 1) (* b__116 a__102))) 0) (>= (+ (* b__116 a__67) (* (- 0 1) (* b__116 a__103))) 0) (>= (+ (* b__116 a__75) (* b__116 a__5 a__76) (* (- 0 1) (* b__116 a__5))) 0) (>= (+ (* b__116 a__75) (* (- 0 1) (* b__116 a__104))) 0) (>= (+ (* b__116 a__76) (* (- 0 1) (* b__116 a__105))) 0) (>= (+ (* b__115 a__39) (* b__115 a__5 a__40) (* (- 0 1) (* b__115 a__106)) (* (- 0 1) (* b__115 a__10 a__107))) 0) (>= (+ (* b__115 a__41) (* (- 0 1) (* b__115 a__11 a__107))) 0) (>= (+ (* b__115 a__39) (* (- 0 1) (* b__115 a__108))) 0) (>= (+ (* b__115 a__40) (* (- 0 1) (* b__115 a__109))) 0) (>= (+ (* b__115 a__41) (* (- 0 1) (* b__115 a__110))) 0) (>= (+ (* b__115 a__42) (* b__115 a__5 a__43) (* (- 0 1) (* b__115 a__5))) 0) (>= (+ (* b__115 a__42) (* (- 0 1) (* b__115 a__111))) 0) (>= (+ (* b__115 a__43) (* (- 0 1) (* b__115 a__112))) 0) (>= (+ (* b__115 a__106) (* b__115 a__5 a__107) (* (- 0 1) (* b__115 a__5))) 0) (>= (+ (* b__115 a__106) (* (- 0 1) (* b__115 a__113))) 0) (>= (+ (* b__115 a__107) (* (- 0 1) (* b__115 a__114))) 0) (>= (+ a__1 (* a__5 a__2) (* (- 0 1) a__6) (* (- 0 1) (* a__10 a__7))) 0) (>= (+ a__6 (* a__5 a__7) (* (- 0 1) a__12) (* (- 0 1) (* a__10 a__13))) 0) (>= (+ a__12 (* a__5 a__13) (* (- 0 1) a__16) (* (- 0 1) (* a__19 a__17))) 0) (>= (+ a__16 (* a__5 a__17) (* (- 0 1) a__21)) 0) (>= (+ a__21 (* a__23 a__22) (* (- 0 1) a__26) (* (- 0 1) (* a__10 a__27))) 0) (>= (+ a__26 (* a__5 a__27) (* (- 0 1) a__1) (* (- 0 1) (* a__10 a__2))) 0) (>= (+ a__21 (* a__30 a__22) (* (- 0 1) a__32) (* (- 0 1) (* a__10 a__33))) 0) (>= (+ a__32 (* a__5 a__33) (* (- 0 1) a__35) (* (- 0 1) (* a__10 a__36))) 0) (>= (+ a__35 (* a__5 a__36) (* (- 0 1) a__21)) 0) (>= (+ a__12 (* a__5 a__13) (* (- 0 1) a__21)) 0) (not (and (= (+ a__1 (* a__5 a__2) (* (- 0 1) a__6) (* (- 0 1) (* a__10 a__7))) 0) (= (+ a__6 (* a__5 a__7) (* (- 0 1) a__12) (* (- 0 1) (* a__10 a__13))) 0) (= (+ a__12 (* a__5 a__13) (* (- 0 1) a__16) (* (- 0 1) (* a__19 a__17))) 0) (= (+ a__16 (* a__5 a__17) (* (- 0 1) a__21)) 0) (= (+ a__21 (* a__23 a__22) (* (- 0 1) a__26) (* (- 0 1) (* a__10 a__27))) 0) (= (+ a__26 (* a__5 a__27) (* (- 0 1) a__1) (* (- 0 1) (* a__10 a__2))) 0) (= (+ a__21 (* a__30 a__22) (* (- 0 1) a__32) (* (- 0 1) (* a__10 a__33))) 0) (= (+ a__32 (* a__5 a__33) (* (- 0 1) a__35) (* (- 0 1) (* a__10 a__36))) 0) (= (+ a__35 (* a__5 a__36) (* (- 0 1) a__21)) 0) (= (+ a__12 (* a__5 a__13) (* (- 0 1) a__21)) 0))) (>= b__115 0) (>= 1 b__115) (>= a__27 0) (>= a__2 0) (>= a__7 0) (>= a__13 0) (>= a__33 0) (>= a__36 0) (>= a__17 0) (>= a__47 0) (>= a__56 0) (>= a__63 0) (>= a__69 0) (>= a__51 0) (>= a__60 0) (>= b__116 0) (>= 1 b__116) (>= a__3 0) (>= a__8 0) (>= a__4 0) (>= a__11 0) (>= a__9 0) (>= a__14 0) (>= a__15 0) (>= a__20 0) (>= a__18 0) (>= a__22 0) (>= a__24 0) (>= a__28 0) (>= a__25 0) (>= a__29 0) (>= a__31 0) (>= a__34 0) (>= a__37 0) (>= a__10 0) (>= a__38 0) (>= a__5 0) (>= a__23 0) (>= a__39 0) (>= a__40 0) (>= a__41 0) (>= a__30 0) (>= a__42 0) (>= a__43 0) (>= a__44 0) (>= a__45 0) (>= a__19 0) (>= a__46 0) (>= a__48 0) (>= a__49 0) (>= a__50 0) (>= a__52 0) (>= a__53 0) (>= a__54 0) (>= a__55 0) (>= a__57 0) (>= a__58 0) (>= a__59 0) (>= a__61 0) (>= a__62 0) (>= a__64 0) (>= a__65 0) (>= a__66 0) (>= a__67 0) (>= a__68 0) (>= a__70 0) (>= a__71 0) (>= a__72 0) (>= a__73 0) (>= a__74 0) (>= a__75 0) (>= a__76 0) (>= a__77 0) (>= a__78 0) (>= a__79 0) (>= a__80 0) (>= a__81 0) (>= a__82 0) (>= a__83 0) (>= a__84 0) (>= a__85 0) (>= a__86 0) (>= a__87 0) (>= a__88 0) (>= a__89 0) (>= a__90 0) (>= a__91 0) (>= a__92 0) (>= a__93 0) (>= a__94 0) (>= a__95 0) (>= a__96 0) (>= a__97 0) (>= a__98 0) (>= a__99 0) (>= a__100 0) (>= a__101 0) (>= a__102 0) (>= a__103 0) (>= a__104 0) (>= a__105 0) (>= a__106 0) (>= a__107 0) (>= a__108 0) (>= a__109 0) (>= a__110 0) (>= a__111 0) (>= a__112 0) (>= a__113 0) (>= a__114 0) (>= a__1 0) (>= a__6 0) (>= a__12 0) (>= a__16 0) (>= a__21 0) (>= a__26 0) (>= a__32 0) (>= a__35 0)))
(check-sat)
;;(get-assignment)
;;(get-model)
(exit)
